submitit INFO (2023-05-02 18:49:34,246) - Starting with JobEnvironment(job_id=27730, hostname=cpunode2, local_rank=0(5), node=0(1), global_rank=0(5))
submitit INFO (2023-05-02 18:49:34,246) - Loading pickle: /h/30/pashootan/Matrix-Mult-CP/src/../logs/4/2x1x3_6_May02_18:49:31/27730_submitted.pkl
 ! --------------------------------------------------- CP Optimizer 22.1.1.0 --
 ! Satisfiability problem - 66 variables, 36 constraints
 ! TimeLimit            = 7200
 ! Workers              = 8
 ! LogPeriod            = 10000000
 ! RandomSeed           = 1147
 ! Initial process time : 0.00s (0.00s extraction + 0.00s propagation)
 !  . Log search space  : 104.6 (before), 104.6 (after)
 !  . Memory usage      : 366.6 kB (before), 366.6 kB (after)
 ! Using parallel search with 8 workers.
 ! ----------------------------------------------------------------------------
 !               Branches  Non-fixed    W       Branch decision
 *                   6746  0.06s        6         1  = V1_1
 ! ----------------------------------------------------------------------------
 ! Search completed, 1 solution found.
 ! ----------------------------------------------------------------------------
 ! Number of branches     : 60071
 ! Number of fails        : 27343
 ! Total memory usage     : 6.6 MB (6.6 MB CP Optimizer + 0.0 MB Concert)
 ! Time spent in solve    : 0.06s (0.06s engine + 0.00s extraction)
 ! Search speed (br. / s) : 1201420.0
 ! ----------------------------------------------------------------------------
Feasible
Model is valid
Saving solution to: /h/30/pashootan/Matrix-Mult-CP/logs/4/2x1x3_6_May02_18:49:31/27730_0_solution.txt
Saving stats to: /h/30/pashootan/Matrix-Mult-CP/logs/4/2x1x3_6_May02_18:49:31/27730_0_stats.csv
submitit INFO (2023-05-02 18:49:34,655) - Job completed successfully
